GLPSOL: GLPK LP/MIP Solver, v4.65
Parameter(s) specified in the command line:
 --model solver_drone.mod --data solver_drone_data_10.dat --output solver_drone_solution_10_7.log
 --log solver_drone_cmd_output_10_7.log --tmlim 40
Reading model section from solver_drone.mod...
41 lines were read
Reading data section from solver_drone_data_10.dat...
37 lines were read
Generating f...
Generating package_deliverd_once...
Generating package_well_delivered...
Generating time_spent_flying...
Generating autonomy_not_exceeded...
Generating check_time_max...
Model has been successfully generated
GLPK Integer Optimizer, v4.65
1200 rows, 1163 columns, 3592 non-zeros
1163 integer variables, 1155 of which are binary
Preprocessing...
44 rows, 1163 columns, 2436 non-zeros
1163 integer variables, 1155 of which are binary
Scaling...
 A: min|aij| =  1.000e+00  max|aij| =  3.088e+03  ratio =  3.088e+03
GM: min|aij| =  5.550e-01  max|aij| =  1.802e+00  ratio =  3.246e+00
EQ: min|aij| =  3.081e-01  max|aij| =  1.000e+00  ratio =  3.246e+00
2N: min|aij| =  2.500e-01  max|aij| =  1.031e+00  ratio =  4.125e+00
Constructing initial basis...
Size of triangular part is 44
Solving LP relaxation...
GLPK Simplex Optimizer, v4.65
44 rows, 1163 columns, 2436 non-zeros
      0: obj =   0.000000000e+00 inf =   7.048e+02 (1)
     47: obj =   3.221714286e+03 inf =   5.479e-15 (0)
*    60: obj =   3.221714286e+03 inf =   5.479e-15 (0)
OPTIMAL LP SOLUTION FOUND
Integer optimization begins...
Long-step dual simplex will be used
+    60: mip =     not found yet >=              -inf        (1; 0)
+   362: >>>>>   4.288000000e+03 >=   3.222000000e+03  24.9% (30; 0)
+   810: >>>>>   4.160000000e+03 >=   3.222000000e+03  22.5% (37; 28)
+  1130: >>>>>   4.056000000e+03 >=   3.222000000e+03  20.6% (49; 37)
+  1251: >>>>>   3.728000000e+03 >=   3.222000000e+03  13.6% (59; 38)
+  2220: >>>>>   3.600000000e+03 >=   3.222000000e+03  10.5% (100; 92)
+  2918: >>>>>   3.352000000e+03 >=   3.222000000e+03   3.9% (123; 144)
+ 33349: >>>>>   3.344000000e+03 >=   3.222000000e+03   3.6% (1388; 643)
+ 57068: >>>>>   3.288000000e+03 >=   3.222000000e+03   2.0% (1897; 1717)
+135503: mip =   3.288000000e+03 >=   3.222000000e+03   2.0% (4048; 3870)
+210477: mip =   3.288000000e+03 >=   3.222000000e+03   2.0% (6088; 5567)
+283644: mip =   3.288000000e+03 >=   3.222000000e+03   2.0% (8048; 7279)
+351895: mip =   3.288000000e+03 >=   3.222000000e+03   2.0% (9674; 9009)
+417235: mip =   3.288000000e+03 >=   3.222000000e+03   2.0% (11495; 10482)
+477517: mip =   3.288000000e+03 >=   3.222000000e+03   2.0% (13145; 11969)
+532857: mip =   3.288000000e+03 >=   3.224000000e+03   1.9% (14472; 13472)
+542979: mip =   3.288000000e+03 >=   3.224000000e+03   1.9% (14745; 13875)
TIME LIMIT EXCEEDED; SEARCH TERMINATED
Time used:   40.0 secs
Memory used: 133.4 Mb (139849676 bytes)
The package 1 is delivered by the drone 5 to the house 1
The package 2 is delivered by the drone 7 to the house 1
The package 3 is delivered by the drone 3 to the house 1
The package 4 is delivered by the drone 7 to the house 2
The package 5 is delivered by the drone 3 to the house 2
The package 6 is delivered by the drone 5 to the house 2
The package 7 is delivered by the drone 6 to the house 3
The package 8 is delivered by the drone 6 to the house 4
The package 9 is delivered by the drone 2 to the house 6
The package 10 is delivered by the drone 6 to the house 7
The package 11 is delivered by the drone 4 to the house 8
The package 12 is delivered by the drone 1 to the house 8
The package 13 is delivered by the drone 2 to the house 9
The package 14 is delivered by the drone 4 to the house 10
The package 15 is delivered by the drone 1 to the house 10
Model has been successfully processed
Writing MIP solution to 'solver_drone_solution_10_7.log'...
